solution status: optimal solution found
objective value:                                    6
x32                                                 1 	(obj:1)
x33                                                 1 	(obj:1)
x34                                                 1 	(obj:1)
x37                                                 1 	(obj:1)
x56                                                 1 	(obj:1)
x58                                                 1 	(obj:1)
$_70_y                                             21 	(obj:0)
$_70_z                                             21 	(obj:0)
$_38_y                                             19 	(obj:0)
$_38_z                                             18 	(obj:0)
$_52_y                                             18 	(obj:0)
$_52_z                                             17 	(obj:0)
$_42_y                                             21 	(obj:0)
$_42_z                                             17 	(obj:0)
$_53_y                                             18 	(obj:0)
$_53_z                                             18 	(obj:0)
$_63_y                                             19 	(obj:0)
$_63_z                                             17 	(obj:0)
$_62_y                                             20 	(obj:0)
$_62_z                                             17 	(obj:0)
$_37_y                                             21 	(obj:0)
$_37_z                                             18 	(obj:0)
$_41_y                                             17 	(obj:0)
$_41_z                                             17 	(obj:0)
$_69_y                                             21 	(obj:0)
$_69_z                                             19 	(obj:0)
$_72_y                                             22 	(obj:0)
$_72_z                                             21 	(obj:0)
